p edge 100 2453
e 1 2
e 1 5
e 1 6
e 1 7
e 1 14
e 1 15
e 1 18
e 1 19
e 1 21
e 1 23
e 1 26
e 1 27
e 1 28
e 1 32
e 1 33
e 1 34
e 1 37
e 1 38
e 1 39
e 1 41
e 1 42
e 1 43
e 1 44
e 1 52
e 1 53
e 1 54
e 1 55
e 1 59
e 1 61
e 1 63
e 1 66
e 1 69
e 1 70
e 1 71
e 1 72
e 1 74
e 1 76
e 1 79
e 1 80
e 1 81
e 1 82
e 1 85
e 1 87
e 1 88
e 1 89
e 1 91
e 1 92
e 1 95
e 1 97
e 1 98
e 1 99
e 1 100
e 2 7
e 2 10
e 2 12
e 2 14
e 2 15
e 2 17
e 2 19
e 2 22
e 2 23
e 2 26
e 2 28
e 2 30
e 2 33
e 2 35
e 2 36
e 2 37
e 2 41
e 2 43
e 2 44
e 2 45
e 2 52
e 2 54
e 2 55
e 2 58
e 2 59
e 2 60
e 2 61
e 2 62
e 2 64
e 2 66
e 2 67
e 2 69
e 2 73
e 2 74
e 2 77
e 2 78
e 2 82
e 2 83
e 2 84
e 2 87
e 2 89
e 2 91
e 2 92
e 2 96
e 2 100
e 3 4
e 3 5
e 3 6
e 3 7
e 3 8
e 3 9
e 3 11
e 3 12
e 3 16
e 3 17
e 3 18
e 3 23
e 3 25
e 3 26
e 3 35
e 3 36
e 3 38
e 3 42
e 3 43
e 3 44
e 3 46
e 3 47
e 3 50
e 3 51
e 3 53
e 3 54
e 3 56
e 3 57
e 3 62
e 3 63
e 3 65
e 3 66
e 3 67
e 3 70
e 3 71
e 3 73
e 3 78
e 3 79
e 3 80
e 3 88
e 3 90
e 3 91
e 3 93
e 3 96
e 3 97
e 3 98
e 3 100
e 4 6
e 4 7
e 4 10
e 4 11
e 4 12
e 4 14
e 4 15
e 4 16
e 4 20
e 4 23
e 4 26
e 4 32
e 4 33
e 4 35
e 4 36
e 4 37
e 4 39
e 4 43
e 4 44
e 4 47
e 4 48
e 4 51
e 4 52
e 4 53
e 4 54
e 4 56
e 4 60
e 4 62
e 4 64
e 4 65
e 4 66
e 4 68
e 4 72
e 4 73
e 4 74
e 4 75
e 4 76
e 4 77
e 4 78
e 4 81
e 4 82
e 4 86
e 4 87
e 4 88
e 4 91
e 4 92
e 4 95
e 4 96
e 4 97
e 4 98
e 4 99
e 5 6
e 5 7
e 5 8
e 5 10
e 5 11
e 5 20
e 5 21
e 5 22
e 5 23
e 5 24
e 5 26
e 5 29
e 5 36
e 5 37
e 5 38
e 5 40
e 5 41
e 5 45
e 5 48
e 5 54
e 5 56
e 5 58
e 5 59
e 5 60
e 5 62
e 5 64
e 5 65
e 5 69
e 5 72
e 5 79
e 5 83
e 5 87
e 5 88
e 5 91
e 5 92
e 5 95
e 5 96
e 5 99
e 6 9
e 6 11
e 6 13
e 6 15
e 6 17
e 6 18
e 6 19
e 6 27
e 6 28
e 6 29
e 6 30
e 6 31
e 6 32
e 6 34
e 6 36
e 6 37
e 6 41
e 6 43
e 6 45
e 6 46
e 6 49
e 6 51
e 6 53
e 6 55
e 6 58
e 6 60
e 6 65
e 6 66
e 6 67
e 6 69
e 6 70
e 6 71
e 6 77
e 6 78
e 6 79
e 6 80
e 6 82
e 6 84
e 6 85
e 6 86
e 6 89
e 6 91
e 6 92
e 6 94
e 6 95
e 6 96
e 6 98
e 7 9
e 7 10
e 7 11
e 7 12
e 7 14
e 7 16
e 7 19
e 7 20
e 7 21
e 7 22
e 7 24
e 7 25
e 7 26
e 7 27
e 7 28
e 7 31
e 7 32
e 7 36
e 7 37
e 7 38
e 7 40
e 7 41
e 7 42
e 7 43
e 7 44
e 7 49
e 7 50
e 7 51
e 7 52
e 7 54
e 7 55
e 7 56
e 7 57
e 7 58
e 7 62
e 7 64
e 7 66
e 7 68
e 7 69
e 7 70
e 7 71
e 7 72
e 7 74
e 7 75
e 7 78
e 7 80
e 7 82
e 7 83
e 7 86
e 7 89
e 7 91
e 7 97
e 7 99
e 7 100
e 8 9
e 8 11
e 8 12
e 8 13
e 8 14
e 8 15
e 8 17
e 8 18
e 8 21
e 8 23
e 8 25
e 8 26
e 8 27
e 8 28
e 8 29
e 8 37
e 8 38
e 8 40
e 8 41
e 8 42
e 8 43
e 8 46
e 8 48
e 8 52
e 8 54
e 8 55
e 8 58
e 8 61
e 8 62
e 8 64
e 8 65
e 8 67
e 8 68
e 8 70
e 8 71
e 8 72
e 8 74
e 8 77
e 8 79
e 8 80
e 8 82
e 8 83
e 8 86
e 8 88
e 8 90
e 8 92
e 8 93
e 8 94
e 8 95
e 9 10
e 9 14
e 9 16
e 9 20
e 9 22
e 9 23
e 9 24
e 9 26
e 9 27
e 9 28
e 9 30
e 9 36
e 9 37
e 9 44
e 9 45
e 9 47
e 9 48
e 9 52
e 9 53
e 9 54
e 9 55
e 9 56
e 9 57
e 9 60
e 9 63
e 9 64
e 9 65
e 9 66
e 9 67
e 9 68
e 9 71
e 9 72
e 9 74
e 9 75
e 9 77
e 9 78
e 9 80
e 9 81
e 9 82
e 9 84
e 9 85
e 9 86
e 9 87
e 9 90
e 9 91
e 9 93
e 9 96
e 9 99
e 10 11
e 10 12
e 10 13
e 10 14
e 10 15
e 10 16
e 10 18
e 10 19
e 10 20
e 10 21
e 10 24
e 10 29
e 10 31
e 10 32
e 10 35
e 10 37
e 10 39
e 10 42
e 10 43
e 10 44
e 10 51
e 10 53
e 10 54
e 10 55
e 10 58
e 10 60
e 10 65
e 10 66
e 10 67
e 10 70
e 10 71
e 10 72
e 10 79
e 10 80
e 10 81
e 10 82
e 10 84
e 10 85
e 10 86
e 10 87
e 10 88
e 10 89
e 10 90
e 10 91
e 10 95
e 10 96
e 10 100
e 11 12
e 11 16
e 11 18
e 11 19
e 11 21
e 11 22
e 11 23
e 11 25
e 11 27
e 11 29
e 11 30
e 11 31
e 11 33
e 11 35
e 11 36
e 11 38
e 11 39
e 11 41
e 11 43
e 11 47
e 11 49
e 11 50
e 11 52
e 11 54
e 11 55
e 11 57
e 11 59
e 11 60
e 11 61
e 11 62
e 11 64
e 11 65
e 11 71
e 11 77
e 11 80
e 11 82
e 11 84
e 11 85
e 11 86
e 11 87
e 11 91
e 11 92
e 11 93
e 11 94
e 11 96
e 12 14
e 12 15
e 12 19
e 12 21
e 12 26
e 12 28
e 12 29
e 12 30
e 12 31
e 12 32
e 12 33
e 12 36
e 12 39
e 12 40
e 12 43
e 12 45
e 12 46
e 12 47
e 12 48
e 12 50
e 12 51
e 12 52
e 12 54
e 12 58
e 12 59
e 12 61
e 12 64
e 12 66
e 12 67
e 12 68
e 12 69
e 12 70
e 12 71
e 12 72
e 12 75
e 12 76
e 12 78
e 12 79
e 12 81
e 12 82
e 12 84
e 12 88
e 12 89
e 12 90
e 12 94
e 12 97
e 12 98
e 12 99
e 13 15
e 13 16
e 13 17
e 13 18
e 13 19
e 13 21
e 13 23
e 13 24
e 13 25
e 13 27
e 13 29
e 13 30
e 13 32
e 13 34
e 13 35
e 13 39
e 13 41
e 13 42
e 13 43
e 13 44
e 13 47
e 13 48
e 13 50
e 13 51
e 13 53
e 13 55
e 13 57
e 13 58
e 13 59
e 13 67
e 13 68
e 13 69
e 13 70
e 13 71
e 13 74
e 13 75
e 13 80
e 13 81
e 13 85
e 13 86
e 13 88
e 13 89
e 13 90
e 13 92
e 13 93
e 13 95
e 13 98
e 13 99
e 13 100
e 14 15
e 14 17
e 14 20
e 14 22
e 14 24
e 14 26
e 14 30
e 14 31
e 14 43
e 14 44
e 14 45
e 14 46
e 14 47
e 14 48
e 14 51
e 14 52
e 14 55
e 14 57
e 14 60
e 14 62
e 14 63
e 14 64
e 14 65
e 14 67
e 14 69
e 14 70
e 14 72
e 14 73
e 14 76
e 14 80
e 14 81
e 14 83
e 14 84
e 14 85
e 14 86
e 14 87
e 14 88
e 14 91
e 14 92
e 14 94
e 14 95
e 14 96
e 14 97
e 14 98
e 14 100
e 15 17
e 15 22
e 15 25
e 15 28
e 15 31
e 15 33
e 15 37
e 15 38
e 15 39
e 15 41
e 15 42
e 15 43
e 15 49
e 15 52
e 15 53
e 15 57
e 15 61
e 15 62
e 15 64
e 15 66
e 15 73
e 15 74
e 15 75
e 15 76
e 15 77
e 15 79
e 15 80
e 15 83
e 15 84
e 15 86
e 15 88
e 15 89
e 15 92
e 15 94
e 15 95
e 15 96
e 15 98
e 15 99
e 16 17
e 16 18
e 16 19
e 16 20
e 16 21
e 16 24
e 16 26
e 16 27
e 16 30
e 16 33
e 16 36
e 16 38
e 16 39
e 16 41
e 16 43
e 16 44
e 16 45
e 16 46
e 16 47
e 16 48
e 16 49
e 16 50
e 16 51
e 16 52
e 16 56
e 16 57
e 16 63
e 16 66
e 16 69
e 16 72
e 16 73
e 16 76
e 16 78
e 16 79
e 16 80
e 16 82
e 16 86
e 16 88
e 16 92
e 16 93
e 16 95
e 16 98
e 16 100
e 17 20
e 17 21
e 17 22
e 17 23
e 17 25
e 17 27
e 17 30
e 17 35
e 17 39
e 17 42
e 17 47
e 17 48
e 17 50
e 17 51
e 17 52
e 17 54
e 17 55
e 17 56
e 17 57
e 17 64
e 17 65
e 17 66
e 17 68
e 17 72
e 17 74
e 17 75
e 17 76
e 17 78
e 17 79
e 17 81
e 17 82
e 17 83
e 17 84
e 17 85
e 17 88
e 17 92
e 17 93
e 17 94
e 17 96
e 17 97
e 17 98
e 17 99
e 18 19
e 18 24
e 18 26
e 18 27
e 18 28
e 18 31
e 18 32
e 18 35
e 18 38
e 18 39
e 18 41
e 18 42
e 18 43
e 18 46
e 18 48
e 18 49
e 18 52
e 18 53
e 18 56
e 18 57
e 18 60
e 18 61
e 18 63
e 18 64
e 18 65
e 18 66
e 18 68
e 18 72
e 18 76
e 18 78
e 18 79
e 18 80
e 18 82
e 18 85
e 18 86
e 18 88
e 18 90
e 18 96
e 19 20
e 19 21
e 19 22
e 19 26
e 19 29
e 19 30
e 19 36
e 19 37
e 19 40
e 19 41
e 19 44
e 19 46
e 19 47
e 19 49
e 19 50
e 19 53
e 19 56
e 19 62
e 19 64
e 19 67
e 19 68
e 19 69
e 19 71
e 19 75
e 19 76
e 19 80
e 19 82
e 19 83
e 19 88
e 19 92
e 19 94
e 19 99
e 19 100
e 20 23
e 20 24
e 20 27
e 20 30
e 20 34
e 20 35
e 20 36
e 20 37
e 20 39
e 20 40
e 20 41
e 20 43
e 20 47
e 20 48
e 20 49
e 20 50
e 20 51
e 20 52
e 20 56
e 20 58
e 20 61
e 20 64
e 20 67
e 20 68
e 20 69
e 20 70
e 20 72
e 20 73
e 20 74
e 20 76
e 20 77
e 20 82
e 20 84
e 20 85
e 20 86
e 20 88
e 20 91
e 20 94
e 20 99
e 21 24
e 21 26
e 21 28
e 21 29
e 21 30
e 21 31
e 21 32
e 21 36
e 21 37
e 21 38
e 21 39
e 21 40
e 21 41
e 21 44
e 21 49
e 21 50
e 21 51
e 21 57
e 21 59
e 21 61
e 21 63
e 21 66
e 21 67
e 21 72
e 21 73
e 21 75
e 21 77
e 21 82
e 21 85
e 21 87
e 21 94
e 21 95
e 21 98
e 21 100
e 22 25
e 22 27
e 22 29
e 22 30
e 22 31
e 22 34
e 22 36
e 22 38
e 22 41
e 22 42
e 22 43
e 22 44
e 22 45
e 22 48
e 22 50
e 22 51
e 22 52
e 22 54
e 22 58
e 22 59
e 22 61
e 22 63
e 22 64
e 22 65
e 22 70
e 22 71
e 22 74
e 22 75
e 22 76
e 22 77
e 22 78
e 22 80
e 22 81
e 22 83
e 22 87
e 22 91
e 22 92
e 22 93
e 22 94
e 22 99
e 22 100
e 23 24
e 23 25
e 23 27
e 23 29
e 23 31
e 23 34
e 23 35
e 23 37
e 23 46
e 23 48
e 23 49
e 23 50
e 23 55
e 23 56
e 23 58
e 23 59
e 23 61
e 23 62
e 23 66
e 23 67
e 23 68
e 23 69
e 23 70
e 23 73
e 23 75
e 23 77
e 23 78
e 23 80
e 23 81
e 23 82
e 23 84
e 23 85
e 23 87
e 23 88
e 23 90
e 23 92
e 23 95
e 23 100
e 24 25
e 24 26
e 24 27
e 24 30
e 24 39
e 24 40
e 24 42
e 24 46
e 24 47
e 24 49
e 24 52
e 24 56
e 24 57
e 24 58
e 24 59
e 24 61
e 24 62
e 24 63
e 24 64
e 24 65
e 24 66
e 24 69
e 24 71
e 24 74
e 24 76
e 24 79
e 24 82
e 24 83
e 24 86
e 24 89
e 24 90
e 24 91
e 24 92
e 24 93
e 24 94
e 24 96
e 24 97
e 24 98
e 24 100
e 25 27
e 25 29
e 25 32
e 25 34
e 25 35
e 25 37
e 25 38
e 25 39
e 25 40
e 25 46
e 25 52
e 25 53
e 25 54
e 25 55
e 25 56
e 25 57
e 25 59
e 25 60
e 25 62
e 25 63
e 25 65
e 25 66
e 25 67
e 25 71
e 25 76
e 25 79
e 25 85
e 25 86
e 25 87
e 25 89
e 25 92
e 25 94
e 25 97
e 25 98
e 25 99
e 26 29
e 26 32
e 26 35
e 26 36
e 26 37
e 26 38
e 26 41
e 26 43
e 26 45
e 26 47
e 26 48
e 26 54
e 26 56
e 26 58
e 26 60
e 26 65
e 26 66
e 26 68
e 26 72
e 26 74
e 26 80
e 26 82
e 26 83
e 26 85
e 26 87
e 26 91
e 26 93
e 26 94
e 26 96
e 26 97
e 26 100
e 27 29
e 27 30
e 27 33
e 27 35
e 27 36
e 27 38
e 27 39
e 27 40
e 27 41
e 27 42
e 27 43
e 27 44
e 27 47
e 27 48
e 27 49
e 27 50
e 27 51
e 27 53
e 27 54
e 27 55
e 27 59
e 27 61
e 27 62
e 27 64
e 27 65
e 27 66
e 27 67
e 27 68
e 27 70
e 27 71
e 27 73
e 27 74
e 27 79
e 27 84
e 27 85
e 27 86
e 27 88
e 27 93
e 27 96
e 27 97
e 27 99
e 28 29
e 28 30
e 28 31
e 28 36
e 28 38
e 28 39
e 28 40
e 28 42
e 28 45
e 28 48
e 28 50
e 28 52
e 28 53
e 28 54
e 28 55
e 28 57
e 28 58
e 28 60
e 28 61
e 28 67
e 28 69
e 28 71
e 28 74
e 28 80
e 28 81
e 28 82
e 28 83
e 28 84
e 28 87
e 28 88
e 28 90
e 28 91
e 28 93
e 28 94
e 28 95
e 28 96
e 28 99
e 29 30
e 29 34
e 29 36
e 29 43
e 29 45
e 29 47
e 29 48
e 29 49
e 29 52
e 29 53
e 29 55
e 29 56
e 29 57
e 29 58
e 29 60
e 29 65
e 29 66
e 29 70
e 29 72
e 29 74
e 29 75
e 29 81
e 29 82
e 29 83
e 29 84
e 29 85
e 29 88
e 29 89
e 29 91
e 29 94
e 29 95
e 29 98
e 29 99
e 29 100
e 30 33
e 30 34
e 30 35
e 30 36
e 30 38
e 30 39
e 30 40
e 30 42
e 30 43
e 30 45
e 30 49
e 30 51
e 30 53
e 30 54
e 30 55
e 30 56
e 30 57
e 30 59
e 30 61
e 30 64
e 30 66
e 30 67
e 30 68
e 30 69
e 30 71
e 30 74
e 30 78
e 30 79
e 30 81
e 30 83
e 30 85
e 30 89
e 30 90
e 30 91
e 30 92
e 30 96
e 30 98
e 30 99
e 30 100
e 31 35
e 31 38
e 31 40
e 31 41
e 31 44
e 31 45
e 31 49
e 31 51
e 31 56
e 31 59
e 31 60
e 31 61
e 31 62
e 31 63
e 31 64
e 31 68
e 31 75
e 31 78
e 31 79
e 31 84
e 31 86
e 31 90
e 31 91
e 31 96
e 31 98
e 31 99
e 31 100
e 32 38
e 32 42
e 32 45
e 32 46
e 32 47
e 32 48
e 32 49
e 32 50
e 32 51
e 32 52
e 32 56
e 32 57
e 32 58
e 32 62
e 32 65
e 32 66
e 32 68
e 32 71
e 32 72
e 32 73
e 32 80
e 32 81
e 32 83
e 32 86
e 32 87
e 32 89
e 32 93
e 33 36
e 33 37
e 33 38
e 33 40
e 33 42
e 33 45
e 33 47
e 33 48
e 33 54
e 33 58
e 33 61
e 33 65
e 33 68
e 33 70
e 33 73
e 33 74
e 33 76
e 33 77
e 33 80
e 33 81
e 33 82
e 33 85
e 33 86
e 33 87
e 33 89
e 33 91
e 33 94
e 33 95
e 33 96
e 33 99
e 34 35
e 34 36
e 34 40
e 34 41
e 34 42
e 34 44
e 34 45
e 34 49
e 34 51
e 34 52
e 34 53
e 34 54
e 34 55
e 34 56
e 34 57
e 34 58
e 34 61
e 34 64
e 34 66
e 34 67
e 34 69
e 34 73
e 34 74
e 34 75
e 34 76
e 34 81
e 34 84
e 34 86
e 34 87
e 34 92
e 34 93
e 34 95
e 34 96
e 34 98
e 34 99
e 34 100
e 35 38
e 35 39
e 35 40
e 35 43
e 35 45
e 35 49
e 35 50
e 35 51
e 35 52
e 35 53
e 35 62
e 35 64
e 35 65
e 35 66
e 35 67
e 35 68
e 35 70
e 35 73
e 35 74
e 35 75
e 35 79
e 35 81
e 35 84
e 35 86
e 35 87
e 35 92
e 35 93
e 35 94
e 35 96
e 35 97
e 36 39
e 36 40
e 36 41
e 36 42
e 36 43
e 36 44
e 36 45
e 36 48
e 36 50
e 36 53
e 36 54
e 36 57
e 36 58
e 36 59
e 36 60
e 36 61
e 36 67
e 36 70
e 36 75
e 36 76
e 36 77
e 36 78
e 36 79
e 36 84
e 36 85
e 36 87
e 36 88
e 36 89
e 36 93
e 36 94
e 36 96
e 36 97
e 36 98
e 37 39
e 37 42
e 37 43
e 37 44
e 37 49
e 37 54
e 37 55
e 37 56
e 37 58
e 37 61
e 37 62
e 37 63
e 37 64
e 37 68
e 37 69
e 37 70
e 37 71
e 37 72
e 37 74
e 37 78
e 37 80
e 37 82
e 37 83
e 37 84
e 37 87
e 37 91
e 37 96
e 37 97
e 37 98
e 37 99
e 37 100
e 38 39
e 38 43
e 38 44
e 38 45
e 38 46
e 38 47
e 38 51
e 38 54
e 38 55
e 38 56
e 38 60
e 38 62
e 38 63
e 38 64
e 38 67
e 38 68
e 38 69
e 38 70
e 38 71
e 38 76
e 38 77
e 38 79
e 38 80
e 38 82
e 38 84
e 38 89
e 38 90
e 38 91
e 38 92
e 38 93
e 38 94
e 38 98
e 39 40
e 39 42
e 39 43
e 39 44
e 39 45
e 39 47
e 39 48
e 39 49
e 39 50
e 39 51
e 39 52
e 39 56
e 39 58
e 39 59
e 39 61
e 39 62
e 39 65
e 39 66
e 39 67
e 39 70
e 39 71
e 39 72
e 39 75
e 39 78
e 39 81
e 39 82
e 39 83
e 39 84
e 39 87
e 39 88
e 39 90
e 39 94
e 39 96
e 39 97
e 40 41
e 40 42
e 40 44
e 40 45
e 40 49
e 40 50
e 40 55
e 40 56
e 40 57
e 40 58
e 40 61
e 40 65
e 40 69
e 40 70
e 40 71
e 40 72
e 40 73
e 40 75
e 40 77
e 40 80
e 40 84
e 40 87
e 40 90
e 40 92
e 40 93
e 40 95
e 40 97
e 40 100
e 41 43
e 41 45
e 41 47
e 41 48
e 41 49
e 41 51
e 41 52
e 41 53
e 41 55
e 41 57
e 41 59
e 41 61
e 41 63
e 41 65
e 41 68
e 41 69
e 41 71
e 41 73
e 41 76
e 41 80
e 41 84
e 41 85
e 41 86
e 41 88
e 41 89
e 41 92
e 41 93
e 41 96
e 41 99
e 41 100
e 42 44
e 42 46
e 42 49
e 42 52
e 42 56
e 42 60
e 42 61
e 42 62
e 42 64
e 42 66
e 42 69
e 42 70
e 42 71
e 42 72
e 42 74
e 42 77
e 42 83
e 42 84
e 42 85
e 42 93
e 42 96
e 42 97
e 43 44
e 43 45
e 43 47
e 43 50
e 43 55
e 43 56
e 43 58
e 43 59
e 43 61
e 43 62
e 43 64
e 43 66
e 43 67
e 43 68
e 43 69
e 43 71
e 43 74
e 43 75
e 43 76
e 43 83
e 43 84
e 43 85
e 43 86
e 43 87
e 43 91
e 43 92
e 43 93
e 43 94
e 43 95
e 43 97
e 43 98
e 43 99
e 43 100
e 44 45
e 44 46
e 44 50
e 44 51
e 44 52
e 44 53
e 44 55
e 44 57
e 44 61
e 44 62
e 44 63
e 44 64
e 44 65
e 44 67
e 44 69
e 44 72
e 44 75
e 44 76
e 44 80
e 44 81
e 44 84
e 44 85
e 44 96
e 44 97
e 44 99
e 45 47
e 45 49
e 45 50
e 45 51
e 45 52
e 45 53
e 45 55
e 45 57
e 45 58
e 45 59
e 45 63
e 45 64
e 45 67
e 45 68
e 45 69
e 45 71
e 45 74
e 45 75
e 45 80
e 45 83
e 45 85
e 45 87
e 45 89
e 45 93
e 45 95
e 45 97
e 45 98
e 45 100
e 46 50
e 46 52
e 46 56
e 46 57
e 46 58
e 46 62
e 46 63
e 46 64
e 46 68
e 46 70
e 46 72
e 46 73
e 46 74
e 46 79
e 46 80
e 46 81
e 46 83
e 46 85
e 46 86
e 46 89
e 46 91
e 46 92
e 46 94
e 46 95
e 46 96
e 46 97
e 46 98
e 46 99
e 46 100
e 47 48
e 47 50
e 47 51
e 47 53
e 47 56
e 47 60
e 47 62
e 47 66
e 47 67
e 47 68
e 47 69
e 47 70
e 47 74
e 47 75
e 47 78
e 47 84
e 47 86
e 47 88
e 47 90
e 47 92
e 47 93
e 47 94
e 47 97
e 47 100
e 48 52
e 48 53
e 48 55
e 48 59
e 48 60
e 48 61
e 48 63
e 48 65
e 48 67
e 48 74
e 48 75
e 48 76
e 48 81
e 48 83
e 48 85
e 48 87
e 48 90
e 48 95
e 48 97
e 48 99
e 49 50
e 49 51
e 49 52
e 49 58
e 49 59
e 49 63
e 49 65
e 49 66
e 49 70
e 49 75
e 49 78
e 49 82
e 49 83
e 49 85
e 49 86
e 49 88
e 49 89
e 49 91
e 49 92
e 49 93
e 49 95
e 49 98
e 49 100
e 50 53
e 50 54
e 50 55
e 50 57
e 50 59
e 50 61
e 50 62
e 50 63
e 50 65
e 50 66
e 50 69
e 50 70
e 50 72
e 50 74
e 50 75
e 50 76
e 50 77
e 50 79
e 50 82
e 50 83
e 50 84
e 50 87
e 50 88
e 50 90
e 50 91
e 50 92
e 50 93
e 50 95
e 50 96
e 50 97
e 51 52
e 51 53
e 51 54
e 51 55
e 51 57
e 51 59
e 51 63
e 51 64
e 51 65
e 51 66
e 51 67
e 51 68
e 51 69
e 51 70
e 51 71
e 51 72
e 51 74
e 51 75
e 51 76
e 51 77
e 51 78
e 51 79
e 51 85
e 51 86
e 51 87
e 51 91
e 51 92
e 51 95
e 51 96
e 51 97
e 51 99
e 51 100
e 52 53
e 52 56
e 52 57
e 52 59
e 52 60
e 52 61
e 52 62
e 52 64
e 52 67
e 52 68
e 52 70
e 52 73
e 52 75
e 52 76
e 52 78
e 52 80
e 52 81
e 52 87
e 52 91
e 52 92
e 52 93
e 52 94
e 52 95
e 52 96
e 52 97
e 53 54
e 53 55
e 53 56
e 53 59
e 53 60
e 53 63
e 53 69
e 53 71
e 53 77
e 53 78
e 53 79
e 53 81
e 53 82
e 53 83
e 53 87
e 53 89
e 53 91
e 53 92
e 53 93
e 53 100
e 54 57
e 54 58
e 54 59
e 54 60
e 54 69
e 54 71
e 54 77
e 54 78
e 54 81
e 54 84
e 54 85
e 54 86
e 54 87
e 54 89
e 54 90
e 54 91
e 54 93
e 54 99
e 55 57
e 55 58
e 55 59
e 55 60
e 55 66
e 55 67
e 55 70
e 55 75
e 55 76
e 55 77
e 55 78
e 55 79
e 55 81
e 55 82
e 55 84
e 55 86
e 55 88
e 55 93
e 55 96
e 55 97
e 55 98
e 55 99
e 56 58
e 56 62
e 56 65
e 56 66
e 56 67
e 56 68
e 56 72
e 56 73
e 56 74
e 56 75
e 56 77
e 56 78
e 56 80
e 56 81
e 56 90
e 56 91
e 56 92
e 56 93
e 56 94
e 56 99
e 56 100
e 57 58
e 57 59
e 57 61
e 57 63
e 57 64
e 57 65
e 57 68
e 57 70
e 57 71
e 57 75
e 57 77
e 57 78
e 57 80
e 57 82
e 57 83
e 57 87
e 57 90
e 57 92
e 57 96
e 57 97
e 57 99
e 57 100
e 58 62
e 58 63
e 58 65
e 58 68
e 58 69
e 58 72
e 58 73
e 58 74
e 58 76
e 58 78
e 58 79
e 58 80
e 58 82
e 58 84
e 58 86
e 58 90
e 58 91
e 58 92
e 58 93
e 58 94
e 58 96
e 58 97
e 58 98
e 58 99
e 58 100
e 59 62
e 59 66
e 59 67
e 59 69
e 59 71
e 59 72
e 59 73
e 59 75
e 59 76
e 59 80
e 59 82
e 59 85
e 59 86
e 59 88
e 59 90
e 59 92
e 59 98
e 60 61
e 60 65
e 60 66
e 60 70
e 60 72
e 60 73
e 60 75
e 60 76
e 60 77
e 60 81
e 60 88
e 60 89
e 60 90
e 60 92
e 60 97
e 60 98
e 60 99
e 60 100
e 61 62
e 61 63
e 61 64
e 61 65
e 61 66
e 61 68
e 61 69
e 61 70
e 61 71
e 61 72
e 61 74
e 61 75
e 61 76
e 61 78
e 61 80
e 61 82
e 61 84
e 61 85
e 61 86
e 61 87
e 61 93
e 61 94
e 61 95
e 61 97
e 61 98
e 61 99
e 61 100
e 62 67
e 62 68
e 62 69
e 62 70
e 62 71
e 62 74
e 62 75
e 62 76
e 62 78
e 62 79
e 62 81
e 62 84
e 62 86
e 62 87
e 62 88
e 62 89
e 62 92
e 62 93
e 62 96
e 62 100
e 63 64
e 63 65
e 63 67
e 63 70
e 63 71
e 63 72
e 63 74
e 63 77
e 63 78
e 63 81
e 63 82
e 63 84
e 63 85
e 63 88
e 63 90
e 63 91
e 63 94
e 63 99
e 64 66
e 64 67
e 64 68
e 64 70
e 64 71
e 64 73
e 64 75
e 64 76
e 64 80
e 64 81
e 64 82
e 64 84
e 64 85
e 64 86
e 64 89
e 64 90
e 64 94
e 64 96
e 64 97
e 64 98
e 64 99
e 64 100
e 65 67
e 65 69
e 65 71
e 65 72
e 65 76
e 65 83
e 65 85
e 65 86
e 65 87
e 65 88
e 65 89
e 65 90
e 65 92
e 65 93
e 65 99
e 66 72
e 66 74
e 66 76
e 66 77
e 66 78
e 66 79
e 66 80
e 66 81
e 66 83
e 66 85
e 66 86
e 66 88
e 66 89
e 66 94
e 66 95
e 66 97
e 66 100
e 67 69
e 67 70
e 67 71
e 67 72
e 67 74
e 67 75
e 67 76
e 67 77
e 67 80
e 67 81
e 67 83
e 67 84
e 67 86
e 67 87
e 67 89
e 67 90
e 67 92
e 67 93
e 67 96
e 67 97
e 67 98
e 67 99
e 67 100
e 68 69
e 68 71
e 68 74
e 68 75
e 68 76
e 68 79
e 68 81
e 68 82
e 68 84
e 68 85
e 68 86
e 68 88
e 68 90
e 68 91
e 68 92
e 68 95
e 68 98
e 69 71
e 69 72
e 69 77
e 69 78
e 69 81
e 69 82
e 69 83
e 69 87
e 69 90
e 69 91
e 69 93
e 69 95
e 69 96
e 69 97
e 69 99
e 70 74
e 70 75
e 70 76
e 70 77
e 70 78
e 70 80
e 70 89
e 70 92
e 70 93
e 70 98
e 70 99
e 71 72
e 71 75
e 71 79
e 71 80
e 71 81
e 71 83
e 71 86
e 71 87
e 71 89
e 71 90
e 71 94
e 71 96
e 71 97
e 71 98
e 72 73
e 72 74
e 72 77
e 72 78
e 72 80
e 72 83
e 72 87
e 72 88
e 72 89
e 72 90
e 72 91
e 72 94
e 72 95
e 72 96
e 72 97
e 72 99
e 73 78
e 73 79
e 73 80
e 73 82
e 73 83
e 73 84
e 73 86
e 73 88
e 73 90
e 73 92
e 73 95
e 73 98
e 73 99
e 74 75
e 74 81
e 74 82
e 74 85
e 74 86
e 74 92
e 74 93
e 74 97
e 74 98
e 74 100
e 75 76
e 75 78
e 75 80
e 75 82
e 75 83
e 75 84
e 75 86
e 75 87
e 75 92
e 75 95
e 75 98
e 75 99
e 76 77
e 76 78
e 76 80
e 76 81
e 76 85
e 76 87
e 76 88
e 76 89
e 76 94
e 76 96
e 76 97
e 77 78
e 77 80
e 77 84
e 77 85
e 77 86
e 77 87
e 77 88
e 77 89
e 77 90
e 77 91
e 77 92
e 77 94
e 77 98
e 77 99
e 78 79
e 78 82
e 78 83
e 78 84
e 78 86
e 78 87
e 78 88
e 78 92
e 78 95
e 78 97
e 78 99
e 79 81
e 79 82
e 79 83
e 79 85
e 79 86
e 79 87
e 79 88
e 79 89
e 79 90
e 79 92
e 79 93
e 79 95
e 79 99
e 79 100
e 80 81
e 80 82
e 80 86
e 80 89
e 80 93
e 80 98
e 81 83
e 81 85
e 81 89
e 81 90
e 81 95
e 81 100
e 82 86
e 82 87
e 82 88
e 82 89
e 82 91
e 82 93
e 82 94
e 82 96
e 82 97
e 82 98
e 83 84
e 83 87
e 83 88
e 83 89
e 83 90
e 83 91
e 83 92
e 83 95
e 83 100
e 84 86
e 84 91
e 84 92
e 84 93
e 84 98
e 84 99
e 85 87
e 85 90
e 85 92
e 85 93
e 85 97
e 85 98
e 85 99
e 86 92
e 86 93
e 86 94
e 86 97
e 86 99
e 87 89
e 87 90
e 87 91
e 87 94
e 87 96
e 87 97
e 87 98
e 88 89
e 88 91
e 88 94
e 88 95
e 88 96
e 88 97
e 88 98
e 88 99
e 89 90
e 89 92
e 89 96
e 89 97
e 89 99
e 90 91
e 90 92
e 90 93
e 90 94
e 90 97
e 90 99
e 90 100
e 91 92
e 91 94
e 91 98
e 92 93
e 92 95
e 92 96
e 92 98
e 93 94
e 93 97
e 93 100
e 94 97
e 94 98
e 94 100
e 95 97
e 96 97
e 96 98
e 97 99
e 98 99